Route #1: 17 12 40 51 6 33 63 1 73 62 28 74
Route #2: 2 30 48 5 29 45 27 52 34 46
Route #3: 8 19 54 13 57 15 37 20 70 60 71 69 36 47 21
Route #4: 61 22 64 42 43 41 56 23 49 24 44 3 16
Route #5: 32 50 18 55 25 31 10 58 72 39 9
Route #6: 38 65 66 11 59 14 53 35 7
Route #7: 26 67 4 68 75
Cost 744